c A SAT instance generated from a 3-CNF formula that had 36 clauses and 9 variables
p cnf 9 36
-9 -8 -5 0
5 -7 -1 0
-8 4 -7 0
-2 -3 6 0
1 5 3 0
-3 6 -1 0
5 -7 8 0
2 -7 8 0
-2 5 8 0
2 7 -8 0
-1 8 2 0
-3 -5 -2 0
-4 -1 3 0
-8 5 -3 0
-1 8 -3 0
-7 -3 -6 0
-5 -2 4 0
5 -1 9 0
-6 9 -7 0
-1 -6 7 0
-8 -2 7 0
2 -6 -8 0
5 -1 9 0
-2 8 -6 0
1 7 4 0
-5 -7 6 0
-4 3 -9 0
2 -1 8 0
-6 -5 -3 0
-9 3 -5 0
-4 -2 1 0
9 -5 -6 0
1 -6 -2 0
-6 8 -7 0
3 8 2 0
4 -7 1 0
